p col 250 3141
p 1 3
p 1 4
p 1 24
p 1 31
p 1 37
p 1 38
p 1 40
p 1 48
p 1 62
p 1 64
p 1 70
p 1 78
p 1 79
p 1 85
p 1 88
p 1 89
p 1 92
p 1 101
p 1 107
p 1 162
p 1 163
p 1 166
p 1 190
p 1 200
p 1 202
p 1 213
p 1 222
p 1 232
p 1 241
p 2 16
p 2 18
p 2 26
p 2 28
p 2 35
p 2 45
p 2 48
p 2 59
p 2 60
p 2 67
p 2 68
p 2 72
p 2 84
p 2 98
p 2 104
p 2 105
p 2 117
p 2 121
p 2 122
p 2 126
p 2 130
p 2 132
p 2 134
p 2 145
p 2 155
p 2 158
p 2 172
p 2 174
p 2 176
p 2 177
p 2 183
p 2 185
p 2 186
p 2 191
p 2 200
p 2 209
p 2 210
p 2 244
p 3 7
p 3 15
p 3 17
p 3 28
p 3 33
p 3 38
p 3 44
p 3 89
p 3 120
p 3 125
p 3 127
p 3 130
p 3 164
p 3 166
p 3 175
p 3 179
p 3 193
p 3 194
p 3 200
p 3 206
p 3 213
p 3 223
p 3 236
p 3 242
p 4 9
p 4 15
p 4 20
p 4 32
p 4 34
p 4 56
p 4 61
p 4 76
p 4 111
p 4 114
p 4 136
p 4 140
p 4 143
p 4 167
p 4 174
p 4 176
p 4 178
p 4 192
p 4 211
p 4 235
p 4 236
p 4 240
p 4 243
p 5 10
p 5 11
p 5 15
p 5 19
p 5 20
p 5 22
p 5 26
p 5 48
p 5 53
p 5 56
p 5 79
p 5 90
p 5 98
p 5 102
p 5 123
p 5 126
p 5 135
p 5 139
p 5 141
p 5 151
p 5 167
p 5 171
p 5 193
p 5 196
p 5 198
p 5 209
p 5 225
p 5 232
p 5 236
p 5 238
p 5 241
p 5 245
p 6 7
p 6 34
p 6 39
p 6 45
p 6 52
p 6 101
p 6 107
p 6 143
p 6 164
p 6 173
p 6 175
p 6 205
p 6 208
p 6 233
p 6 236
p 7 32
p 7 44
p 7 48
p 7 61
p 7 87
p 7 95
p 7 97
p 7 99
p 7 104
p 7 109
p 7 110
p 7 126
p 7 128
p 7 131
p 7 141
p 7 151
p 7 153
p 7 163
p 7 166
p 7 168
p 7 174
p 7 175
p 7 190
p 7 222
p 7 226
p 7 227
p 7 231
p 7 236
p 8 9
p 8 62
p 8 74
p 8 88
p 8 89
p 8 109
p 8 133
p 8 134
p 8 143
p 8 148
p 8 156
p 8 159
p 8 190
p 8 211
p 8 219
p 8 226
p 8 229
p 8 233
p 8 237
p 9 28
p 9 30
p 9 49
p 9 52
p 9 61
p 9 70
p 9 90
p 9 93
p 9 98
p 9 137
p 9 147
p 9 155
p 9 160
p 9 165
p 9 204
p 9 208
p 9 226
p 9 236
p 9 239
p 9 245
p 9 249
p 10 31
p 10 41
p 10 45
p 10 53
p 10 60
p 10 70
p 10 71
p 10 77
p 10 81
p 10 98
p 10 99
p 10 106
p 10 119
p 10 120
p 10 136
p 10 155
p 10 167
p 10 169
p 10 175
p 10 180
p 10 187
p 10 196
p 10 221
p 10 240
p 11 15
p 11 31
p 11 41
p 11 43
p 11 59
p 11 60
p 11 74
p 11 82
p 11 89
p 11 114
p 11 120
p 11 122
p 11 123
p 11 126
p 11 130
p 11 133
p 11 145
p 11 154
p 11 155
p 11 159
p 11 168
p 11 174
p 11 177
p 11 194
p 11 197
p 11 200
p 11 207
p 11 211
p 11 217
p 11 220
p 11 237
p 11 249
p 12 27
p 12 37
p 12 40
p 12 42
p 12 43
p 12 48
p 12 59
p 12 72
p 12 73
p 12 79
p 12 87
p 12 89
p 12 93
p 12 106
p 12 127
p 12 140
p 12 153
p 12 162
p 12 164
p 12 169
p 12 171
p 12 186
p 12 189
p 12 193
p 12 198
p 12 219
p 12 223
p 12 225
p 12 238
p 12 243
p 12 244
p 12 246
p 13 42
p 13 47
p 13 64
p 13 70
p 13 79
p 13 88
p 13 103
p 13 104
p 13 109
p 13 112
p 13 113
p 13 116
p 13 126
p 13 145
p 13 161
p 13 163
p 13 165
p 13 173
p 13 198
p 13 202
p 13 203
p 13 212
p 13 213
p 13 229
p 13 235
p 13 239
p 13 245
p 14 17
p 14 25
p 14 34
p 14 37
p 14 45
p 14 58
p 14 68
p 14 72
p 14 86
p 14 103
p 14 104
p 14 110
p 14 111
p 14 114
p 14 120
p 14 122
p 14 127
p 14 144
p 14 146
p 14 169
p 14 173
p 14 179
p 14 191
p 14 194
p 14 199
p 14 220
p 14 224
p 14 226
p 14 228
p 14 236
p 14 243
p 14 244
p 14 245
p 15 17
p 15 31
p 15 34
p 15 37
p 15 53
p 15 54
p 15 89
p 15 101
p 15 119
p 15 128
p 15 148
p 15 153
p 15 161
p 15 167
p 15 176
p 15 179
p 15 200
p 15 202
p 15 203
p 15 208
p 15 218
p 15 222
p 15 246
p 15 249
p 16 26
p 16 40
p 16 48
p 16 55
p 16 61
p 16 64
p 16 67
p 16 71
p 16 73
p 16 85
p 16 86
p 16 111
p 16 112
p 16 118
p 16 125
p 16 126
p 16 140
p 16 142
p 16 156
p 16 162
p 16 166
p 16 189
p 16 211
p 16 225
p 16 226
p 16 231
p 16 249
p 17 18
p 17 30
p 17 48
p 17 51
p 17 62
p 17 81
p 17 120
p 17 147
p 17 152
p 17 156
p 17 163
p 17 171
p 17 178
p 17 207
p 17 222
p 17 244
p 18 20
p 18 22
p 18 26
p 18 39
p 18 54
p 18 58
p 18 70
p 18 77
p 18 97
p 18 103
p 18 105
p 18 106
p 18 119
p 18 127
p 18 143
p 18 150
p 18 157
p 18 161
p 18 175
p 18 203
p 18 225
p 18 238
p 18 249
p 19 21
p 19 25
p 19 34
p 19 35
p 19 37
p 19 77
p 19 78
p 19 92
p 19 95
p 19 103
p 19 121
p 19 137
p 19 139
p 19 141
p 19 143
p 19 149
p 19 150
p 19 151
p 19 156
p 19 166
p 19 167
p 19 184
p 19 189
p 19 193
p 19 199
p 19 201
p 19 212
p 19 237
p 19 239
p 19 241
p 20 53
p 20 72
p 20 73
p 20 94
p 20 104
p 20 118
p 20 122
p 20 127
p 20 134
p 20 137
p 20 154
p 20 164
p 20 178
p 20 193
p 20 213
p 20 216
p 20 230
p 20 234
p 20 236
p 20 247
p 21 25
p 21 27
p 21 28
p 21 35
p 21 43
p 21 51
p 21 67
p 21 69
p 21 74
p 21 80
p 21 89
p 21 98
p 21 103
p 21 130
p 21 170
p 21 172
p 21 184
p 21 206
p 21 209
p 21 217
p 21 219
p 21 220
p 21 224
p 21 226
p 21 230
p 21 231
p 21 243
p 21 245
p 21 246
p 22 49
p 22 51
p 22 57
p 22 80
p 22 82
p 22 100
p 22 101
p 22 104
p 22 118
p 22 120
p 22 138
p 22 140
p 22 143
p 22 167
p 22 171
p 22 182
p 22 185
p 22 197
p 22 198
p 22 206
p 22 223
p 22 232
p 22 239
p 22 243
p 23 46
p 23 58
p 23 64
p 23 81
p 23 84
p 23 96
p 23 97
p 23 124
p 23 131
p 23 169
p 23 176
p 23 190
p 23 198
p 23 209
p 23 210
p 23 224
p 23 228
p 23 229
p 23 241
p 23 247
p 24 38
p 24 66
p 24 67
p 24 89
p 24 95
p 24 96
p 24 101
p 24 103
p 24 104
p 24 118
p 24 119
p 24 124
p 24 141
p 24 147
p 24 152
p 24 160
p 24 171
p 24 173
p 24 184
p 24 186
p 24 198
p 24 199
p 24 210
p 24 218
p 24 220
p 24 223
p 24 243
p 25 32
p 25 38
p 25 47
p 25 63
p 25 71
p 25 74
p 25 83
p 25 88
p 25 100
p 25 111
p 25 114
p 25 120
p 25 127
p 25 134
p 25 135
p 25 148
p 25 157
p 25 166
p 25 182
p 25 189
p 25 191
p 25 201
p 25 204
p 25 210
p 25 236
p 26 68
p 26 69
p 26 79
p 26 93
p 26 94
p 26 98
p 26 119
p 26 137
p 26 139
p 26 159
p 26 164
p 26 167
p 26 182
p 26 188
p 26 199
p 26 250
p 27 28
p 27 31
p 27 38
p 27 46
p 27 71
p 27 89
p 27 95
p 27 103
p 27 106
p 27 113
p 27 144
p 27 155
p 27 156
p 27 166
p 27 183
p 27 201
p 27 214
p 27 215
p 27 220
p 27 221
p 27 223
p 27 228
p 28 47
p 28 50
p 28 57
p 28 58
p 28 60
p 28 66
p 28 67
p 28 77
p 28 82
p 28 105
p 28 112
p 28 121
p 28 136
p 28 140
p 28 158
p 28 164
p 28 184
p 28 207
p 28 225
p 28 237
p 28 241
p 28 246
p 28 248
p 29 34
p 29 46
p 29 57
p 29 76
p 29 88
p 29 117
p 29 122
p 29 131
p 29 168
p 29 182
p 29 187
p 29 199
p 29 207
p 29 208
p 29 215
p 29 226
p 29 249
p 29 250
p 30 43
p 30 54
p 30 56
p 30 67
p 30 78
p 30 79
p 30 91
p 30 95
p 30 124
p 30 125
p 30 150
p 30 204
p 30 209
p 30 217
p 30 220
p 31 33
p 31 38
p 31 40
p 31 54
p 31 57
p 31 64
p 31 66
p 31 68
p 31 79
p 31 101
p 31 123
p 31 159
p 31 167
p 31 198
p 31 206
p 31 215
p 31 233
p 31 234
p 31 237
p 32 33
p 32 40
p 32 49
p 32 100
p 32 102
p 32 130
p 32 132
p 32 134
p 32 136
p 32 147
p 32 150
p 32 157
p 32 182
p 32 188
p 32 198
p 32 200
p 32 205
p 32 214
p 32 217
p 32 219
p 32 221
p 33 40
p 33 43
p 33 56
p 33 59
p 33 84
p 33 101
p 33 104
p 33 110
p 33 113
p 33 114
p 33 122
p 33 142
p 33 153
p 33 177
p 33 180
p 33 182
p 33 186
p 33 192
p 33 199
p 33 209
p 33 230
p 33 236
p 33 243
p 34 36
p 34 47
p 34 53
p 34 68
p 34 74
p 34 75
p 34 79
p 34 85
p 34 93
p 34 100
p 34 102
p 34 109
p 34 110
p 34 120
p 34 132
p 34 166
p 34 167
p 34 168
p 34 173
p 34 185
p 34 188
p 34 194
p 34 215
p 34 222
p 34 232
p 34 234
p 34 244
p 35 38
p 35 54
p 35 57
p 35 101
p 35 104
p 35 128
p 35 143
p 35 154
p 35 166
p 35 172
p 35 181
p 35 190
p 35 206
p 35 210
p 35 226
p 35 230
p 35 245
p 36 52
p 36 58
p 36 60
p 36 62
p 36 65
p 36 72
p 36 74
p 36 79
p 36 97
p 36 123
p 36 132
p 36 135
p 36 138
p 36 156
p 36 159
p 36 162
p 36 169
p 36 170
p 36 185
p 36 188
p 36 193
p 36 199
p 36 220
p 36 237
p 36 238
p 36 247
p 36 249
p 37 44
p 37 57
p 37 75
p 37 76
p 37 109
p 37 113
p 37 120
p 37 130
p 37 135
p 37 139
p 37 146
p 37 151
p 37 154
p 37 156
p 37 158
p 37 167
p 37 172
p 37 178
p 37 193
p 37 211
p 37 215
p 37 220
p 37 248
p 38 41
p 38 44
p 38 45
p 38 52
p 38 63
p 38 68
p 38 82
p 38 96
p 38 100
p 38 121
p 38 122
p 38 128
p 38 131
p 38 142
p 38 164
p 38 165
p 38 180
p 38 186
p 38 192
p 38 205
p 38 207
p 38 249
p 39 51
p 39 67
p 39 87
p 39 92
p 39 105
p 39 107
p 39 121
p 39 141
p 39 145
p 39 176
p 39 183
p 39 187
p 39 188
p 39 201
p 39 204
p 39 215
p 39 220
p 39 222
p 39 226
p 39 231
p 40 54
p 40 65
p 40 71
p 40 72
p 40 79
p 40 84
p 40 97
p 40 99
p 40 117
p 40 147
p 40 160
p 40 163
p 40 176
p 40 183
p 40 212
p 40 227
p 40 237
p 41 54
p 41 59
p 41 60
p 41 81
p 41 82
p 41 133
p 41 137
p 41 154
p 41 205
p 41 206
p 41 213
p 41 232
p 41 233
p 41 247
p 41 250
p 42 45
p 42 58
p 42 61
p 42 62
p 42 78
p 42 80
p 42 82
p 42 95
p 42 111
p 42 117
p 42 120
p 42 124
p 42 136
p 42 147
p 42 152
p 42 154
p 42 161
p 42 185
p 42 198
p 42 206
p 42 209
p 42 212
p 42 217
p 42 236
p 42 250
p 43 82
p 43 93
p 43 106
p 43 111
p 43 114
p 43 121
p 43 122
p 43 123
p 43 129
p 43 139
p 43 140
p 43 156
p 43 159
p 43 178
p 43 182
p 43 185
p 43 194
p 43 200
p 43 203
p 43 213
p 43 216
p 43 217
p 43 230
p 43 239
p 43 240
p 44 49
p 44 52
p 44 81
p 44 87
p 44 94
p 44 118
p 44 123
p 44 128
p 44 146
p 44 158
p 44 162
p 44 169
p 44 176
p 44 198
p 44 206
p 44 207
p 44 217
p 44 242
p 44 248
p 45 51
p 45 55
p 45 73
p 45 77
p 45 91
p 45 106
p 45 111
p 45 126
p 45 134
p 45 149
p 45 151
p 45 153
p 45 173
p 45 221
p 45 226
p 45 243
p 46 55
p 46 61
p 46 67
p 46 68
p 46 73
p 46 114
p 46 123
p 46 130
p 46 136
p 46 137
p 46 139
p 46 147
p 46 157
p 46 177
p 46 193
p 46 210
p 46 217
p 46 220
p 46 246
p 47 54
p 47 72
p 47 73
p 47 88
p 47 105
p 47 115
p 47 116
p 47 132
p 47 133
p 47 136
p 47 138
p 47 143
p 47 144
p 47 147
p 47 148
p 47 175
p 47 179
p 47 190
p 47 196
p 47 201
p 47 225
p 47 234
p 47 242
p 48 52
p 48 59
p 48 74
p 48 76
p 48 96
p 48 112
p 48 136
p 48 141
p 48 151
p 48 154
p 48 162
p 48 170
p 48 194
p 48 208
p 48 214
p 48 217
p 48 236
p 48 247
p 49 81
p 49 83
p 49 87
p 49 88
p 49 108
p 49 124
p 49 129
p 49 145
p 49 154
p 49 155
p 49 161
p 49 167
p 49 177
p 49 180
p 49 193
p 49 212
p 49 217
p 49 227
p 49 240
p 49 247
p 49 249
p 50 54
p 50 56
p 50 67
p 50 71
p 50 88
p 50 89
p 50 96
p 50 107
p 50 129
p 50 130
p 50 133
p 50 153
p 50 155
p 50 157
p 50 203
p 50 207
p 50 211
p 50 215
p 50 219
p 50 235
p 51 58
p 51 71
p 51 73
p 51 78
p 51 86
p 51 96
p 51 148
p 51 158
p 51 174
p 51 182
p 51 186
p 51 188
p 51 192
p 51 195
p 51 208
p 51 213
p 51 228
p 51 244
p 52 57
p 52 59
p 52 62
p 52 64
p 52 66
p 52 87
p 52 107
p 52 116
p 52 131
p 52 137
p 52 142
p 52 146
p 52 154
p 52 155
p 52 161
p 52 163
p 52 167
p 52 190
p 52 192
p 52 194
p 52 226
p 52 240
p 52 245
p 52 249
p 53 91
p 53 109
p 53 111
p 53 120
p 53 127
p 53 128
p 53 157
p 53 158
p 53 167
p 53 197
p 53 211
p 53 213
p 53 224
p 53 244
p 53 245
p 53 248
p 54 55
p 54 58
p 54 69
p 54 93
p 54 108
p 54 124
p 54 126
p 54 132
p 54 145
p 54 147
p 54 153
p 54 181
p 54 187
p 54 207
p 54 211
p 54 223
p 54 231
p 54 235
p 54 245
p 54 248
p 55 67
p 55 73
p 55 74
p 55 75
p 55 101
p 55 137
p 55 144
p 55 150
p 55 162
p 55 171
p 55 176
p 55 182
p 55 184
p 55 187
p 55 207
p 55 217
p 55 221
p 55 244
p 55 249
p 56 64
p 56 69
p 56 104
p 56 107
p 56 115
p 56 118
p 56 125
p 56 132
p 56 149
p 56 152
p 56 162
p 56 169
p 56 175
p 56 184
p 56 190
p 56 195
p 56 200
p 56 206
p 56 237
p 56 249
p 56 250
p 57 82
p 57 89
p 57 108
p 57 118
p 57 134
p 57 136
p 57 137
p 57 138
p 57 148
p 57 153
p 57 158
p 57 168
p 57 175
p 57 181
p 57 184
p 57 201
p 57 205
p 57 208
p 57 219
p 58 59
p 58 67
p 58 74
p 58 75
p 58 78
p 58 88
p 58 101
p 58 108
p 58 148
p 58 164
p 58 172
p 58 180
p 58 211
p 58 229
p 58 237
p 58 240
p 58 248
p 59 63
p 59 70
p 59 72
p 59 81
p 59 82
p 59 85
p 59 110
p 59 129
p 59 163
p 59 186
p 59 213
p 59 217
p 59 226
p 59 227
p 60 66
p 60 88
p 60 91
p 60 95
p 60 97
p 60 98
p 60 101
p 60 117
p 60 121
p 60 155
p 60 159
p 60 164
p 60 178
p 60 187
p 60 191
p 60 205
p 60 233
p 60 239
p 60 243
p 60 248
p 61 66
p 61 75
p 61 88
p 61 103
p 61 133
p 61 169
p 61 180
p 61 188
p 61 193
p 61 198
p 61 207
p 61 214
p 61 216
p 61 219
p 61 232
p 61 234
p 61 236
p 61 241
p 62 68
p 62 70
p 62 81
p 62 85
p 62 92
p 62 94
p 62 107
p 62 112
p 62 142
p 62 143
p 62 146
p 62 154
p 62 157
p 62 166
p 62 212
p 62 231
p 62 233
p 62 236
p 62 240
p 62 243
p 63 71
p 63 91
p 63 110
p 63 116
p 63 140
p 63 170
p 63 187
p 63 192
p 63 193
p 63 228
p 63 240
p 63 246
p 64 70
p 64 71
p 64 82
p 64 118
p 64 124
p 64 131
p 64 137
p 64 169
p 64 201
p 64 203
p 64 244
p 64 245
p 65 72
p 65 79
p 65 94
p 65 95
p 65 97
p 65 105
p 65 129
p 65 142
p 65 161
p 65 183
p 65 185
p 65 190
p 65 203
p 65 209
p 65 221
p 65 227
p 65 241
p 65 242
p 66 70
p 66 72
p 66 80
p 66 81
p 66 89
p 66 120
p 66 121
p 66 124
p 66 132
p 66 151
p 66 196
p 66 216
p 67 70
p 67 78
p 67 96
p 67 98
p 67 166
p 67 170
p 67 182
p 67 185
p 67 194
p 67 197
p 67 200
p 67 201
p 67 208
p 67 213
p 67 216
p 67 227
p 67 243
p 68 74
p 68 90
p 68 91
p 68 93
p 68 101
p 68 106
p 68 113
p 68 121
p 68 124
p 68 127
p 68 133
p 68 141
p 68 178
p 68 183
p 68 186
p 68 202
p 68 203
p 68 205
p 68 218
p 68 220
p 68 222
p 69 96
p 69 113
p 69 123
p 69 125
p 69 127
p 69 136
p 69 146
p 69 155
p 69 167
p 69 171
p 69 178
p 69 195
p 69 197
p 69 209
p 69 212
p 69 223
p 69 231
p 69 236
p 70 78
p 70 81
p 70 88
p 70 107
p 70 109
p 70 112
p 70 124
p 70 132
p 70 140
p 70 153
p 70 185
p 70 222
p 70 231
p 70 237
p 70 242
p 70 243
p 71 77
p 71 80
p 71 90
p 71 117
p 71 120
p 71 131
p 71 137
p 71 142
p 71 159
p 71 182
p 71 189
p 71 194
p 71 196
p 71 205
p 71 206
p 71 209
p 71 210
p 71 225
p 71 227
p 71 236
p 72 101
p 72 110
p 72 127
p 72 130
p 72 141
p 72 148
p 72 170
p 72 224
p 72 236
p 72 237
p 72 238
p 72 244
p 72 245
p 72 249
p 73 76
p 73 92
p 73 93
p 73 103
p 73 108
p 73 112
p 73 114
p 73 119
p 73 121
p 73 153
p 73 176
p 73 186
p 73 187
p 73 188
p 73 201
p 73 208
p 73 209
p 73 210
p 73 237
p 73 249
p 74 77
p 74 80
p 74 88
p 74 90
p 74 112
p 74 130
p 74 140
p 74 143
p 74 151
p 74 152
p 74 158
p 74 162
p 74 175
p 74 178
p 74 186
p 74 194
p 74 204
p 74 221
p 74 242
p 74 249
p 75 83
p 75 89
p 75 90
p 75 100
p 75 117
p 75 132
p 75 133
p 75 136
p 75 139
p 75 141
p 75 166
p 75 168
p 75 171
p 75 176
p 75 185
p 75 192
p 75 194
p 75 200
p 75 208
p 75 219
p 75 221
p 75 233
p 75 245
p 76 77
p 76 96
p 76 100
p 76 109
p 76 130
p 76 137
p 76 158
p 76 160
p 76 163
p 76 179
p 76 182
p 76 190
p 76 193
p 76 208
p 76 232
p 76 243
p 76 247
p 77 84
p 77 85
p 77 88
p 77 91
p 77 98
p 77 100
p 77 102
p 77 129
p 77 132
p 77 134
p 77 135
p 77 149
p 77 157
p 77 187
p 77 207
p 77 208
p 77 217
p 77 220
p 77 238
p 78 89
p 78 101
p 78 125
p 78 133
p 78 140
p 78 141
p 78 142
p 78 150
p 78 163
p 78 169
p 78 233
p 78 237
p 78 241
p 79 82
p 79 84
p 79 95
p 79 99
p 79 101
p 79 108
p 79 128
p 79 146
p 79 163
p 79 169
p 79 179
p 79 187
p 79 190
p 79 209
p 79 214
p 79 215
p 79 218
p 79 225
p 79 249
p 80 86
p 80 90
p 80 119
p 80 128
p 80 132
p 80 152
p 80 155
p 80 163
p 80 183
p 80 197
p 80 207
p 80 208
p 80 217
p 80 222
p 80 228
p 80 231
p 80 236
p 80 244
p 80 245
p 80 248
p 80 249
p 81 84
p 81 85
p 81 91
p 81 97
p 81 112
p 81 131
p 81 138
p 81 142
p 81 143
p 81 149
p 81 161
p 81 171
p 81 172
p 81 189
p 81 194
p 81 198
p 81 199
p 81 212
p 81 250
p 82 111
p 82 120
p 82 123
p 82 138
p 82 163
p 82 164
p 82 171
p 82 217
p 82 234
p 82 249
p 82 250
p 83 84
p 83 94
p 83 105
p 83 109
p 83 116
p 83 126
p 83 137
p 83 154
p 83 163
p 83 168
p 83 171
p 83 179
p 83 210
p 83 227
p 83 246
p 83 247
p 83 248
p 83 249
p 84 107
p 84 130
p 84 132
p 84 135
p 84 155
p 84 156
p 84 169
p 84 188
p 84 205
p 84 206
p 84 216
p 84 233
p 84 238
p 85 93
p 85 98
p 85 100
p 85 110
p 85 115
p 85 132
p 85 162
p 85 163
p 85 168
p 85 173
p 85 177
p 85 217
p 85 222
p 85 224
p 85 232
p 85 233
p 86 87
p 86 99
p 86 103
p 86 109
p 86 110
p 86 116
p 86 141
p 86 147
p 86 149
p 86 157
p 86 169
p 86 182
p 86 192
p 86 207
p 86 219
p 86 231
p 87 91
p 87 117
p 87 119
p 87 156
p 87 169
p 87 170
p 87 172
p 87 187
p 87 192
p 87 193
p 87 194
p 87 204
p 87 221
p 88 102
p 88 121
p 88 124
p 88 129
p 88 144
p 88 182
p 88 190
p 88 223
p 88 230
p 89 116
p 89 122
p 89 129
p 89 130
p 89 135
p 89 148
p 89 170
p 89 171
p 89 185
p 89 186
p 89 217
p 89 224
p 89 231
p 89 232
p 89 237
p 89 241
p 90 101
p 90 119
p 90 125
p 90 141
p 90 164
p 90 178
p 90 180
p 90 188
p 90 199
p 90 204
p 90 209
p 90 211
p 90 218
p 90 231
p 91 101
p 91 110
p 91 113
p 91 117
p 91 118
p 91 137
p 91 145
p 91 162
p 91 177
p 91 197
p 91 198
p 91 203
p 91 206
p 91 216
p 91 220
p 91 226
p 91 231
p 91 234
p 91 235
p 91 237
p 91 241
p 92 106
p 92 119
p 92 125
p 92 126
p 92 151
p 92 159
p 92 171
p 92 175
p 92 179
p 92 196
p 92 202
p 92 206
p 92 222
p 92 236
p 92 239
p 92 245
p 92 246
p 92 248
p 93 100
p 93 102
p 93 103
p 93 116
p 93 118
p 93 131
p 93 149
p 93 158
p 93 160
p 93 164
p 93 175
p 93 184
p 93 188
p 93 193
p 93 208
p 93 215
p 93 221
p 93 222
p 93 243
p 94 105
p 94 108
p 94 134
p 94 144
p 94 145
p 94 170
p 94 188
p 94 207
p 94 208
p 94 216
p 94 219
p 95 134
p 95 141
p 95 153
p 95 160
p 95 167
p 95 179
p 95 184
p 95 213
p 95 217
p 95 220
p 95 223
p 95 229
p 95 238
p 95 239
p 95 241
p 95 243
p 96 108
p 96 130
p 96 156
p 96 172
p 96 178
p 96 187
p 96 200
p 96 216
p 96 230
p 96 231
p 97 112
p 97 141
p 97 143
p 97 145
p 97 166
p 97 170
p 97 173
p 97 180
p 97 206
p 97 222
p 97 240
p 97 244
p 97 245
p 97 248
p 98 112
p 98 122
p 98 128
p 98 131
p 98 132
p 98 136
p 98 155
p 98 173
p 98 185
p 98 188
p 98 189
p 98 191
p 98 199
p 98 201
p 98 247
p 98 249
p 99 106
p 99 112
p 99 114
p 99 130
p 99 135
p 99 145
p 99 149
p 99 155
p 99 172
p 99 175
p 99 178
p 99 184
p 99 187
p 99 189
p 99 194
p 99 202
p 99 230
p 100 129
p 100 138
p 100 187
p 100 191
p 100 193
p 100 203
p 100 204
p 100 216
p 100 229
p 100 231
p 100 232
p 100 233
p 100 240
p 100 242
p 100 249
p 101 144
p 101 155
p 101 165
p 101 176
p 101 183
p 101 198
p 101 213
p 101 220
p 101 227
p 101 232
p 101 236
p 101 249
p 102 113
p 102 115
p 102 120
p 102 137
p 102 145
p 102 206
p 102 213
p 102 217
p 102 219
p 102 223
p 102 227
p 102 233
p 102 237
p 102 238
p 102 239
p 102 245
p 103 136
p 103 154
p 103 160
p 103 163
p 103 175
p 103 183
p 103 189
p 103 196
p 103 214
p 103 217
p 103 223
p 103 225
p 103 231
p 103 235
p 103 250
p 104 112
p 104 122
p 104 123
p 104 126
p 104 135
p 104 138
p 104 181
p 104 187
p 104 192
p 104 196
p 104 199
p 104 210
p 104 214
p 104 228
p 104 238
p 104 240
p 104 244
p 105 119
p 105 123
p 105 133
p 105 149
p 105 156
p 105 169
p 105 186
p 105 205
p 105 208
p 105 224
p 105 231
p 105 238
p 105 240
p 106 118
p 106 119
p 106 145
p 106 161
p 106 166
p 106 168
p 106 169
p 106 171
p 106 178
p 106 184
p 106 208
p 106 214
p 106 215
p 106 217
p 106 247
p 107 134
p 107 138
p 107 163
p 107 167
p 107 178
p 107 200
p 107 201
p 107 212
p 107 216
p 107 220
p 107 234
p 107 239
p 107 246
p 107 247
p 108 116
p 108 128
p 108 139
p 108 140
p 108 169
p 108 174
p 108 176
p 108 179
p 108 182
p 108 188
p 108 189
p 108 213
p 108 229
p 108 242
p 108 250
p 109 112
p 109 132
p 109 146
p 109 152
p 109 168
p 109 177
p 109 178
p 109 184
p 109 185
p 109 188
p 109 197
p 109 198
p 109 202
p 109 204
p 109 214
p 109 215
p 109 234
p 109 237
p 109 245
p 110 119
p 110 127
p 110 133
p 110 142
p 110 145
p 110 148
p 110 149
p 110 152
p 110 162
p 110 169
p 110 208
p 110 215
p 110 223
p 110 236
p 110 239
p 111 115
p 111 119
p 111 134
p 111 156
p 111 164
p 111 169
p 111 175
p 111 179
p 111 207
p 111 208
p 111 217
p 111 221
p 111 247
p 112 113
p 112 115
p 112 121
p 112 130
p 112 132
p 112 139
p 112 143
p 112 159
p 112 163
p 112 166
p 112 185
p 112 186
p 112 187
p 112 198
p 112 207
p 112 208
p 112 213
p 112 214
p 112 219
p 112 222
p 112 241
p 112 244
p 112 249
p 113 143
p 113 148
p 113 154
p 113 163
p 113 194
p 113 209
p 113 218
p 113 241
p 114 119
p 114 124
p 114 129
p 114 144
p 114 146
p 114 148
p 114 149
p 114 161
p 114 169
p 114 178
p 114 179
p 114 192
p 114 227
p 114 241
p 114 245
p 115 119
p 115 122
p 115 126
p 115 129
p 115 133
p 115 139
p 115 156
p 115 161
p 115 171
p 115 191
p 115 219
p 115 238
p 115 239
p 115 240
p 115 246
p 116 117
p 116 148
p 116 158
p 116 181
p 116 191
p 116 194
p 116 218
p 116 219
p 116 232
p 116 237
p 117 126
p 117 128
p 117 153
p 117 157
p 117 164
p 117 166
p 117 172
p 117 179
p 117 188
p 117 192
p 117 201
p 117 215
p 117 231
p 117 244
p 118 137
p 118 152
p 118 162
p 118 174
p 118 184
p 118 186
p 118 215
p 118 217
p 118 222
p 118 228
p 118 235
p 118 238
p 118 244
p 119 128
p 119 137
p 119 155
p 119 160
p 119 168
p 119 170
p 119 177
p 119 193
p 119 194
p 119 217
p 119 219
p 119 222
p 119 234
p 119 244
p 120 128
p 120 133
p 120 153
p 120 154
p 120 156
p 120 168
p 120 171
p 120 187
p 120 247
p 121 132
p 121 135
p 121 143
p 121 160
p 121 162
p 121 163
p 121 171
p 121 194
p 121 208
p 121 212
p 121 219
p 121 225
p 121 233
p 121 241
p 122 127
p 122 159
p 122 160
p 122 168
p 122 176
p 122 185
p 122 209
p 122 213
p 122 223
p 122 228
p 122 233
p 123 125
p 123 132
p 123 145
p 123 147
p 123 158
p 123 163
p 123 187
p 123 189
p 123 191
p 123 192
p 123 201
p 123 206
p 123 214
p 123 223
p 123 240
p 123 249
p 124 131
p 124 132
p 124 133
p 124 143
p 124 153
p 124 154
p 124 170
p 124 177
p 124 183
p 124 186
p 124 188
p 124 201
p 124 207
p 124 208
p 124 214
p 124 215
p 124 224
p 124 238
p 125 152
p 125 169
p 125 186
p 125 203
p 126 163
p 126 171
p 126 172
p 126 178
p 126 189
p 126 197
p 126 201
p 126 213
p 126 216
p 126 244
p 126 249
p 126 250
p 127 139
p 127 143
p 127 146
p 127 157
p 127 158
p 127 162
p 127 184
p 127 195
p 127 220
p 127 221
p 127 232
p 127 233
p 128 129
p 128 132
p 128 136
p 128 150
p 128 165
p 128 194
p 128 197
p 128 198
p 128 210
p 128 221
p 128 224
p 128 242
p 128 249
p 129 130
p 129 135
p 129 140
p 129 143
p 129 146
p 129 171
p 129 181
p 129 188
p 129 201
p 129 217
p 129 222
p 129 229
p 129 231
p 129 242
p 130 133
p 130 144
p 130 145
p 130 156
p 130 162
p 130 164
p 130 170
p 130 180
p 130 184
p 130 185
p 130 191
p 130 199
p 130 221
p 130 237
p 131 135
p 131 194
p 131 199
p 131 205
p 131 208
p 131 213
p 131 226
p 131 240
p 131 243
p 132 133
p 132 155
p 132 171
p 132 180
p 132 181
p 132 187
p 132 204
p 132 207
p 132 216
p 132 217
p 132 221
p 132 228
p 132 235
p 133 144
p 133 146
p 133 147
p 133 154
p 133 185
p 133 189
p 133 210
p 133 218
p 133 220
p 133 221
p 133 224
p 133 239
p 134 140
p 134 154
p 134 171
p 134 179
p 134 201
p 134 205
p 134 208
p 134 210
p 134 216
p 134 219
p 134 222
p 134 231
p 134 246
p 135 140
p 135 146
p 135 150
p 135 153
p 135 160
p 135 163
p 135 184
p 135 207
p 135 214
p 135 215
p 135 222
p 135 230
p 135 232
p 135 242
p 135 244
p 135 246
p 136 137
p 136 149
p 136 164
p 136 170
p 136 176
p 136 182
p 136 187
p 136 217
p 136 222
p 136 225
p 136 229
p 136 244
p 136 246
p 137 142
p 137 149
p 137 153
p 137 170
p 137 174
p 137 204
p 137 205
p 137 209
p 137 211
p 137 221
p 137 250
p 138 171
p 138 181
p 138 189
p 138 194
p 138 220
p 138 225
p 138 229
p 138 231
p 139 141
p 139 146
p 139 155
p 139 178
p 139 185
p 139 189
p 139 191
p 139 193
p 139 213
p 139 221
p 140 159
p 140 167
p 140 168
p 140 173
p 140 185
p 140 186
p 140 197
p 140 198
p 140 206
p 140 209
p 140 212
p 140 239
p 141 153
p 141 193
p 141 202
p 141 208
p 141 222
p 141 225
p 142 154
p 142 156
p 142 161
p 142 162
p 142 165
p 142 180
p 142 181
p 142 183
p 142 192
p 142 202
p 142 208
p 142 216
p 142 240
p 143 144
p 143 146
p 143 166
p 143 169
p 143 183
p 143 185
p 143 205
p 143 208
p 143 219
p 143 222
p 143 225
p 143 236
p 144 147
p 144 154
p 144 165
p 144 166
p 144 170
p 144 171
p 144 174
p 144 196
p 144 212
p 144 217
p 144 224
p 144 235
p 144 236
p 144 246
p 145 149
p 145 171
p 145 175
p 145 182
p 145 194
p 145 211
p 145 214
p 145 222
p 145 229
p 145 248
p 145 250
p 146 147
p 146 150
p 146 158
p 146 162
p 146 165
p 146 183
p 146 186
p 146 200
p 146 205
p 146 239
p 146 242
p 147 149
p 147 150
p 147 156
p 147 159
p 147 167
p 147 196
p 147 216
p 147 219
p 148 186
p 148 188
p 148 189
p 148 192
p 148 217
p 148 223
p 148 230
p 148 232
p 148 233
p 148 235
p 148 243
p 148 246
p 148 247
p 149 151
p 149 160
p 149 165
p 149 166
p 149 176
p 149 190
p 149 194
p 149 205
p 149 208
p 149 213
p 149 239
p 149 240
p 150 152
p 150 169
p 150 179
p 150 232
p 150 235
p 150 237
p 151 154
p 151 158
p 151 163
p 151 165
p 151 173
p 151 178
p 151 197
p 151 200
p 151 201
p 151 203
p 151 212
p 151 217
p 152 170
p 152 172
p 152 179
p 152 188
p 152 189
p 152 204
p 152 206
p 152 217
p 152 218
p 152 224
p 152 225
p 152 229
p 152 237
p 152 247
p 153 170
p 153 176
p 153 182
p 153 191
p 153 214
p 153 225
p 154 171
p 154 183
p 154 193
p 154 223
p 154 244
p 154 248
p 155 160
p 155 172
p 155 173
p 155 180
p 155 188
p 155 189
p 155 193
p 155 195
p 155 206
p 155 215
p 155 217
p 155 226
p 155 234
p 155 244
p 156 166
p 156 171
p 156 174
p 156 176
p 156 181
p 156 183
p 156 185
p 156 203
p 156 206
p 156 207
p 156 228
p 156 243
p 156 248
p 156 250
p 157 164
p 157 169
p 157 179
p 157 180
p 157 184
p 157 190
p 157 195
p 157 220
p 157 227
p 157 237
p 157 239
p 157 242
p 157 248
p 157 249
p 158 162
p 158 168
p 158 176
p 158 195
p 158 199
p 158 200
p 158 229
p 158 232
p 159 169
p 159 171
p 159 188
p 159 215
p 160 173
p 160 174
p 160 180
p 160 186
p 160 195
p 160 203
p 160 208
p 160 214
p 160 215
p 160 219
p 160 236
p 160 244
p 160 247
p 161 164
p 161 181
p 161 182
p 161 185
p 161 192
p 161 209
p 161 217
p 161 220
p 161 234
p 162 190
p 162 192
p 162 193
p 162 221
p 162 226
p 162 232
p 163 195
p 163 222
p 163 233
p 163 246
p 164 181
p 164 192
p 164 193
p 164 194
p 164 200
p 164 204
p 164 214
p 164 219
p 164 229
p 165 174
p 165 193
p 165 195
p 165 198
p 165 200
p 165 205
p 165 210
p 165 230
p 165 233
p 165 242
p 166 198
p 166 199
p 166 208
p 166 211
p 166 216
p 166 218
p 166 232
p 166 239
p 166 250
p 167 173
p 167 179
p 167 180
p 167 185
p 167 195
p 167 203
p 167 209
p 167 210
p 167 220
p 167 224
p 167 228
p 167 239
p 168 177
p 168 186
p 168 194
p 168 199
p 168 204
p 168 219
p 168 221
p 168 225
p 168 243
p 168 247
p 168 250
p 169 170
p 169 205
p 169 223
p 169 250
p 170 187
p 170 190
p 170 197
p 170 223
p 170 231
p 171 178
p 171 182
p 171 192
p 171 198
p 171 203
p 171 215
p 171 223
p 171 235
p 172 176
p 172 177
p 172 202
p 172 208
p 172 209
p 172 212
p 172 224
p 172 225
p 172 226
p 172 244
p 172 245
p 173 182
p 173 192
p 173 214
p 173 232
p 174 176
p 174 179
p 174 201
p 174 210
p 174 227
p 174 243
p 174 250
p 175 179
p 175 180
p 175 188
p 175 192
p 175 199
p 175 203
p 175 216
p 175 234
p 175 238
p 175 239
p 175 246
p 175 247
p 176 178
p 176 188
p 176 193
p 176 199
p 176 211
p 176 217
p 176 225
p 176 247
p 177 180
p 177 184
p 177 190
p 177 193
p 177 209
p 177 211
p 177 217
p 177 229
p 177 233
p 177 234
p 178 189
p 178 202
p 178 213
p 178 217
p 178 224
p 178 226
p 178 245
p 178 247
p 179 184
p 179 195
p 179 196
p 179 205
p 179 207
p 179 213
p 179 216
p 179 243
p 180 192
p 180 205
p 180 211
p 180 237
p 181 185
p 181 189
p 181 190
p 181 193
p 181 195
p 181 206
p 181 213
p 181 227
p 181 228
p 181 229
p 181 235
p 182 191
p 182 196
p 182 197
p 182 218
p 182 231
p 182 237
p 182 246
p 182 247
p 183 196
p 183 236
p 183 246
p 184 200
p 184 224
p 184 234
p 185 195
p 185 229
p 185 239
p 185 240
p 185 246
p 185 247
p 186 196
p 186 208
p 186 218
p 186 249
p 187 196
p 187 203
p 187 214
p 187 216
p 187 224
p 187 231
p 187 239
p 187 246
p 187 250
p 188 196
p 188 217
p 188 220
p 188 223
p 188 228
p 188 230
p 188 232
p 188 233
p 188 242
p 189 217
p 189 222
p 189 223
p 189 241
p 189 242
p 190 191
p 190 192
p 190 232
p 190 238
p 190 249
p 190 250
p 191 200
p 191 210
p 191 213
p 191 218
p 191 228
p 191 250
p 192 204
p 192 222
p 192 224
p 192 231
p 192 233
p 192 238
p 192 239
p 193 200
p 193 201
p 193 203
p 193 209
p 193 210
p 193 214
p 193 217
p 193 229
p 193 230
p 193 233
p 193 243
p 193 246
p 194 204
p 194 210
p 194 219
p 195 200
p 195 239
p 195 243
p 196 215
p 196 224
p 196 225
p 196 242
p 196 247
p 197 239
p 197 250
p 198 210
p 199 205
p 199 220
p 199 223
p 199 236
p 199 248
p 200 206
p 200 209
p 200 216
p 200 233
p 200 236
p 200 239
p 200 245
p 200 246
p 201 210
p 201 212
p 201 219
p 201 226
p 202 211
p 202 214
p 202 223
p 202 234
p 202 235
p 202 237
p 202 240
p 203 211
p 203 215
p 203 216
p 203 224
p 203 230
p 203 233
p 203 246
p 203 248
p 203 249
p 204 216
p 204 217
p 204 218
p 204 220
p 205 218
p 205 229
p 205 231
p 205 239
p 206 213
p 206 224
p 206 237
p 207 213
p 207 216
p 207 225
p 207 238
p 208 209
p 208 225
p 208 235
p 208 247
p 208 249
p 208 250
p 209 216
p 209 217
p 209 223
p 209 236
p 209 237
p 210 212
p 210 223
p 210 241
p 211 219
p 211 220
p 211 227
p 211 232
p 211 234
p 211 238
p 212 228
p 213 217
p 213 220
p 213 223
p 213 226
p 213 228
p 213 242
p 213 246
p 214 219
p 214 222
p 214 244
p 214 245
p 214 248
p 215 227
p 215 238
p 216 223
p 216 233
p 216 235
p 216 248
p 217 220
p 217 221
p 217 222
p 217 239
p 218 227
p 218 233
p 219 229
p 219 240
p 219 244
p 219 245
p 219 247
p 220 223
p 220 227
p 220 228
p 220 230
p 220 231
p 220 235
p 220 244
p 221 222
p 221 231
p 221 247
p 222 241
p 222 249
p 222 250
p 223 227
p 223 235
p 223 243
p 223 246
p 224 227
p 224 232
p 224 241
p 224 245
p 224 248
p 225 240
p 225 243
p 226 234
p 226 239
p 226 240
p 227 237
p 228 249
p 229 236
p 229 250
p 230 233
p 231 236
p 231 242
p 232 237
p 233 235
p 234 250
p 235 250
p 236 247
p 237 243
p 238 249
p 238 250
p 241 245
p 241 247
p 242 244
p 242 246
p 249 250